NB_EMPLOYES = 6;

NIVEAU_HIERARCHIQUE_E = [| 1,
	| 2,
	| 1,
	| 3,
	| 2,
	| 3|];
	
	
COMP_CLEES_E = [| 0, 0, 1, 0, 1, 1, 0, 0, 0, 0,
	| 1, 0, 0, 1, 0, 1, 1, 1, 0, 0,
	| 0, 1, 1, 1, 0, 0, 0, 0, 0, 0,
	| 0, 0, 1, 1, 1, 1, 0, 0, 0, 1,
	| 1, 1, 0, 1, 0, 1, 0, 1, 0, 0,
	| 0, 0, 1, 0, 1, 0, 1, 0, 1, 0|];
	
AUTRES_COMP_E = [|1, 0, 0, 0, 0, 0, 0, 0, 0, 1,
	| 0, 1, 0, 0, 0, 0, 0, 0, 0, 0,
	| 0, 0, 1, 0, 0, 0, 0, 0, 1, 0,
	| 0, 0, 0, 0, 0, 0, 0, 0, 0, 0,
	| 0, 0, 0, 0, 1, 0, 0, 0, 0, 0,
	| 0, 0, 0, 1, 0, 1, 1, 0, 0, 0|];
	
NIVEAU_EDUCATION_E = [| 1,
	| 3,
	| 2,
	| 2,
	| 1,
	|3|];
	
TITRE_PROFESSIONNEL_E = [| 0,
	| 1,
	| 2,
	| 0,
	| 1,
	|3|];
	
NIVEAU_FR_E = [| 2,
	| 1,
	| 2,
	| 1,
	| 3,
	|3|];
	
NIVEAU_EN_E = [| 2,
	| 3,
	| 1,
	| 1,
	| 3,
	|4|];
	
AUTRES_LANGUES_E = [| 0, 0, 0, 0, 1, 0, 0, 0, 0, 0,
	| 0, 0, 1, 0, 0, 0, 0, 0, 0, 0,
	| 0, 0, 0, 0, 0, 0, 0, 0, 0, 0,
	| 0, 0, 0, 0, 0, 0, 0, 0, 0, 0,
	| 0, 0, 0, 0, 0, 0, 0, 0, 0, 1,
	| 0, 0, 0, 0, 0, 0, 0, 0, 0, 0|];